Mg24 N16
1.0
   4.9658574259511967    4.9658574259511958    4.9658574259511967
   4.9658574259511949   -4.9658574259511958   -4.9658574259511958
  -4.9658574259511949    4.9658574259511958   -4.9658574259511958
Mg N
24 16
direct
   0.0063884499999999    0.5412201900000001    0.2697618099999999 Mg2+
   0.2302381900000001    0.7714583800000001    0.7366266400000001 Mg2+
   0.4936115500000001    0.2633733599999999    0.0348317400000000 Mg2+
   0.2285416199999999    0.9587798100000001    0.4651682600000000 Mg2+
   0.4651682600000001    0.7285416199999998    0.4587798100000000 Mg2+
   0.0412201900000001    0.7697618099999999    0.0063884500000000 Mg2+
   0.7366266400000001    0.7302381900000001    0.2714583800000001 Mg2+
   0.7633733599999999    0.5348317400000000    0.4936115500000000 Mg2+
   0.0348317400000000    0.9936115500000000    0.7633733599999999 Mg2+
   0.2714583800000001    0.2366266400000001    0.2302381900000001 Mg2+
   0.2697618100000000    0.5063884500000000    0.0412201900000000 Mg2+
   0.4587798100000000    0.9651682600000000    0.2285416199999999 Mg2+
   0.2366266400000000    0.4651682600000001    0.5063884500000000 Mg2+
   0.2633733600000000    0.2697618099999999    0.7285416199999999 Mg2+
   0.9587798099999999    0.2302381900000002    0.9936115500000000 Mg2+
   0.5348317399999999    0.2714583800000002    0.5412201900000000 Mg2+
   0.7714583800000001    0.0412201900000000    0.5348317400000001 Mg2+
   0.5063884500000001    0.7366266400000001    0.9651682600000001 Mg2+
   0.7697618099999999    0.2285416199999999    0.2633733599999999 Mg2+
   0.9936115500000001    0.4587798100000001    0.7302381900000001 Mg2+
   0.9651682600000000    0.0063884500000000    0.2366266400000001 Mg2+
   0.7285416199999999    0.7633733599999999    0.7697618099999999 Mg2+
   0.7302381900000000    0.4936115500000001    0.9587798100000001 Mg2+
   0.5412201900000001    0.0348317400000001    0.7714583800000001 Mg2+
   0.0000000000000000    0.5000000000000000    0.5000000000000000 N3-
   0.0000000000000000    0.0000000000000000    0.0000000000000000 N3-
   0.4999999999999999    0.5000000000000001    0.0000000000000001 N3-
   0.5000000000000000    0.0000000000000000    0.5000000000000001 N3-
   0.4688925749999999    0.7500000000000001    0.7188925749999999 N3-
   0.7811074250000001    0.5311074250000001    0.7500000000000001 N3-
   0.7499999999999999    0.2811074250000002    0.0311074250000002 N3-
   0.7188925749999999    0.9688925749999999    0.2500000000000001 N3-
   0.2499999999999999    0.2188925750000000    0.4688925750000000 N3-
   0.0311074250000001    0.2500000000000000    0.7811074250000001 N3-
   0.5311074250000001    0.2499999999999999    0.2811074250000001 N3-
   0.2188925749999999    0.4688925750000000    0.2500000000000000 N3-
   0.2500000000000000    0.7188925749999999    0.9688925750000000 N3-
   0.2811074250000001    0.0311074250000002    0.7500000000000000 N3-
   0.7500000000000000    0.7811074250000001    0.5311074250000002 N3-
   0.9688925749999999    0.7500000000000001    0.2188925750000000 N3-
